(declare-const delta_y Int)
(declare-const delta___cost Int)
(declare-const delta_tmp Int)
(assert (exists
         ((|y'?1?1| Int) (|tmp'?2?2| Int) (|__cost'?3?3| Int) (havoc?4?4 Int)
            (m?5?5 Int) (y?6?6 Int) (tmp?7?7 Int) (__cost?8?8 Int))
         (and (< (- __cost?8?8) 0) (< (+ (- m?5?5) y?6?6) 0)
                (or (< havoc?4?4 0) (< (- havoc?4?4) 0))
                (<= (- __cost?8?8) 0) (<= (+ (- __cost?8?8) -1) 0)
                (= (+ |y'?1?1| (- y?6?6) -1) 0)
                (= (+ |tmp'?2?2| (- havoc?4?4)) 0)
                (= (+ |__cost'?3?3| (- __cost?8?8) -1) 0)
                (= (+ delta___cost (- (+ |__cost'?3?3| (- __cost?8?8)))) 0)
                (= (+ delta_tmp (- (+ |tmp'?2?2| (- tmp?7?7)))) 0)
                (= (+ delta_y (- (+ |y'?1?1| (- y?6?6)))) 0))))